c Software verification instances generated by
c Calysto static checker. For more information
c contact Domagoj Babic.
c Location in code: /work/benchmarks/SOURCES/gzip-1.2.4/util.c:296
p cnf 332 533
1 0
-2 0
3 0
-4 0
-5 0
-6 0
-7 0
-8 0
-9 0
-10 0
-11 0
-12 0
-13 0
-14 0
-15 0
-16 0
-17 0
-18 0
-19 0
-20 0
-21 0
-22 0
-23 0
-24 0
-25 0
-26 0
-27 0
-28 0
-29 0
-30 0
-31 0
-32 0
-33 0
-34 0
-35 0
-332 0
36 70 0
-36 -70 0
37 71 0
-37 -71 0
38 72 0
-38 -72 0
39 73 0
-39 -73 0
40 74 0
-40 -74 0
41 75 0
-41 -75 0
42 76 0
-42 -76 0
43 77 0
-43 -77 0
44 78 0
-44 -78 0
45 79 0
-45 -79 0
46 80 0
-46 -80 0
47 81 0
-47 -81 0
48 82 0
-48 -82 0
49 83 0
-49 -83 0
50 84 0
-50 -84 0
51 85 0
-51 -85 0
52 86 0
-52 -86 0
53 87 0
-53 -87 0
54 88 0
-54 -88 0
55 89 0
-55 -89 0
56 90 0
-56 -90 0
57 91 0
-57 -91 0
58 92 0
-58 -92 0
59 93 0
-59 -93 0
60 94 0
-60 -94 0
61 95 0
-61 -95 0
62 96 0
-62 -96 0
63 97 0
-63 -97 0
64 98 0
-64 -98 0
65 99 0
-65 -99 0
66 100 0
-66 -100 0
67 101 0
-67 -101 0
-70 102 0
70 -102 0
-71 -102 103 0
102 -103 0
71 -103 0
-72 -103 104 0
103 -104 0
72 -104 0
-73 -104 105 0
104 -105 0
73 -105 0
-74 -105 106 0
105 -106 0
74 -106 0
-75 -106 107 0
106 -107 0
75 -107 0
-76 -107 108 0
107 -108 0
76 -108 0
-77 -108 109 0
108 -109 0
77 -109 0
-78 -109 110 0
109 -110 0
78 -110 0
-79 -110 111 0
110 -111 0
79 -111 0
-80 -111 112 0
111 -112 0
80 -112 0
-81 -112 113 0
112 -113 0
81 -113 0
-82 -113 114 0
113 -114 0
82 -114 0
-83 -114 115 0
114 -115 0
83 -115 0
-84 -115 116 0
115 -116 0
84 -116 0
-85 -116 117 0
116 -117 0
85 -117 0
-86 -117 118 0
117 -118 0
86 -118 0
-87 -118 119 0
118 -119 0
87 -119 0
-88 -119 120 0
119 -120 0
88 -120 0
-89 -120 121 0
120 -121 0
89 -121 0
-90 -121 122 0
121 -122 0
90 -122 0
-91 -122 123 0
122 -123 0
91 -123 0
-92 -123 124 0
123 -124 0
92 -124 0
-93 -124 125 0
124 -125 0
93 -125 0
-94 -125 126 0
125 -126 0
94 -126 0
-95 -126 127 0
126 -127 0
95 -127 0
-96 -127 128 0
127 -128 0
96 -128 0
-97 -128 129 0
128 -129 0
97 -129 0
-98 -129 130 0
129 -130 0
98 -130 0
-99 -130 131 0
130 -131 0
99 -131 0
-100 -131 132 0
131 -132 0
100 -132 0
-101 -132 133 0
132 -133 0
101 -133 0
-69 133 0
69 -133 0
68 69 0
-68 -69 0
-68 134 0
68 -134 0
135 169 0
-135 -169 0
136 170 0
-136 -170 0
137 171 0
-137 -171 0
138 172 0
-138 -172 0
139 173 0
-139 -173 0
140 174 0
-140 -174 0
141 175 0
-141 -175 0
142 176 0
-142 -176 0
143 177 0
-143 -177 0
144 178 0
-144 -178 0
145 179 0
-145 -179 0
146 180 0
-146 -180 0
147 181 0
-147 -181 0
148 182 0
-148 -182 0
149 183 0
-149 -183 0
150 184 0
-150 -184 0
151 185 0
-151 -185 0
152 186 0
-152 -186 0
153 187 0
-153 -187 0
154 188 0
-154 -188 0
155 189 0
-155 -189 0
156 190 0
-156 -190 0
157 191 0
-157 -191 0
158 192 0
-158 -192 0
159 193 0
-159 -193 0
160 194 0
-160 -194 0
161 195 0
-161 -195 0
162 196 0
-162 -196 0
163 197 0
-163 -197 0
164 198 0
-164 -198 0
165 199 0
-165 -199 0
166 200 0
-166 -200 0
-169 201 0
169 -201 0
-170 -201 202 0
201 -202 0
170 -202 0
-171 -202 203 0
202 -203 0
171 -203 0
-172 -203 204 0
203 -204 0
172 -204 0
-173 -204 205 0
204 -205 0
173 -205 0
-174 -205 206 0
205 -206 0
174 -206 0
-175 -206 207 0
206 -207 0
175 -207 0
-176 -207 208 0
207 -208 0
176 -208 0
-177 -208 209 0
208 -209 0
177 -209 0
-178 -209 210 0
209 -210 0
178 -210 0
-179 -210 211 0
210 -211 0
179 -211 0
-180 -211 212 0
211 -212 0
180 -212 0
-181 -212 213 0
212 -213 0
181 -213 0
-182 -213 214 0
213 -214 0
182 -214 0
-183 -214 215 0
214 -215 0
183 -215 0
-184 -215 216 0
215 -216 0
184 -216 0
-185 -216 217 0
216 -217 0
185 -217 0
-186 -217 218 0
217 -218 0
186 -218 0
-187 -218 219 0
218 -219 0
187 -219 0
-188 -219 220 0
219 -220 0
188 -220 0
-189 -220 221 0
220 -221 0
189 -221 0
-190 -221 222 0
221 -222 0
190 -222 0
-191 -222 223 0
222 -223 0
191 -223 0
-192 -223 224 0
223 -224 0
192 -224 0
-193 -224 225 0
224 -225 0
193 -225 0
-194 -225 226 0
225 -226 0
194 -226 0
-195 -226 227 0
226 -227 0
195 -227 0
-196 -227 228 0
227 -228 0
196 -228 0
-197 -228 229 0
228 -229 0
197 -229 0
-198 -229 230 0
229 -230 0
198 -230 0
-199 -230 231 0
230 -231 0
199 -231 0
-200 -231 232 0
231 -232 0
200 -232 0
-168 232 0
168 -232 0
167 168 0
-167 -168 0
-134 -167 233 0
134 -233 0
167 -233 0
234 268 0
-234 -268 0
235 269 0
-235 -269 0
236 270 0
-236 -270 0
237 271 0
-237 -271 0
238 272 0
-238 -272 0
239 273 0
-239 -273 0
240 274 0
-240 -274 0
241 275 0
-241 -275 0
242 276 0
-242 -276 0
243 277 0
-243 -277 0
244 278 0
-244 -278 0
245 279 0
-245 -279 0
246 280 0
-246 -280 0
247 281 0
-247 -281 0
248 282 0
-248 -282 0
249 283 0
-249 -283 0
250 284 0
-250 -284 0
251 285 0
-251 -285 0
252 286 0
-252 -286 0
253 287 0
-253 -287 0
254 288 0
-254 -288 0
255 289 0
-255 -289 0
256 290 0
-256 -290 0
257 291 0
-257 -291 0
258 292 0
-258 -292 0
259 293 0
-259 -293 0
260 294 0
-260 -294 0
261 295 0
-261 -295 0
262 296 0
-262 -296 0
263 297 0
-263 -297 0
264 298 0
-264 -298 0
265 299 0
-265 -299 0
-268 300 0
268 -300 0
-269 -300 301 0
300 -301 0
269 -301 0
-270 -301 302 0
301 -302 0
270 -302 0
-271 -302 303 0
302 -303 0
271 -303 0
-272 -303 304 0
303 -304 0
272 -304 0
-273 -304 305 0
304 -305 0
273 -305 0
-274 -305 306 0
305 -306 0
274 -306 0
-275 -306 307 0
306 -307 0
275 -307 0
-276 -307 308 0
307 -308 0
276 -308 0
-277 -308 309 0
308 -309 0
277 -309 0
-278 -309 310 0
309 -310 0
278 -310 0
-279 -310 311 0
310 -311 0
279 -311 0
-280 -311 312 0
311 -312 0
280 -312 0
-281 -312 313 0
312 -313 0
281 -313 0
-282 -313 314 0
313 -314 0
282 -314 0
-283 -314 315 0
314 -315 0
283 -315 0
-284 -315 316 0
315 -316 0
284 -316 0
-285 -316 317 0
316 -317 0
285 -317 0
-286 -317 318 0
317 -318 0
286 -318 0
-287 -318 319 0
318 -319 0
287 -319 0
-288 -319 320 0
319 -320 0
288 -320 0
-289 -320 321 0
320 -321 0
289 -321 0
-290 -321 322 0
321 -322 0
290 -322 0
-291 -322 323 0
322 -323 0
291 -323 0
-292 -323 324 0
323 -324 0
292 -324 0
-293 -324 325 0
324 -325 0
293 -325 0
-294 -325 326 0
325 -326 0
294 -326 0
-295 -326 327 0
326 -327 0
295 -327 0
-296 -327 328 0
327 -328 0
296 -328 0
-297 -328 329 0
328 -329 0
297 -329 0
-298 -329 330 0
329 -330 0
298 -330 0
-299 -330 331 0
330 -331 0
299 -331 0
-267 331 0
267 -331 0
266 267 0
-266 -267 0
233 332 0
-266 332 0
-233 266 -332 0
